NAME: tsp45_5
COMMENT: 45-tsp problem (Padberg/Rinaldi)
TYPE: TSP
DIMENSION: 45
EDGE_WEIGHT_TYPE : EUC_2D
NODE_COORD_SECTION
1 29 27
2 0 23
3 40 39
4 34 32
5 24 1
6 18 20
7 6 20
8 20 13
9 27 6
10 31 0
11 38 6
12 39 11
13 9 7
14 22 39
15 36 34
16 20 39
17 14 11
18 8 2
19 11 32
20 33 29
21 39 5
22 9 31
23 27 30
24 35 26
25 15 27
26 5 4
27 35 34
28 12 21
29 13 29
30 20 14
31 25 37
32 4 30
33 5 28
34 1 18
35 30 19
36 15 18
37 22 23
38 37 29
39 9 5
40 4 20
41 10 33
42 25 33
43 16 15
44 36 19
45 23 35
